c This is QMaxSAT 2017 based on 14.07
c This is Glucose 3.0
c This is MiniSat 2.2.0
c WARNING: for repeatability, setting FPU to use double precision
c card = mrwto, comp = 0, pmodel = 0, narr = 8, mct = 42, verb = 0
cr firstCPXsol 0 0 0
c top = 127531
c |  Number of variables:    81352                                            |
c |  Number of clauses:      58256506                                         |
c |  Weight of hard clauses: 127531                                           |
c |  Number of soft clauses: 13776                                            |
c |  Number of unit soft clauses: 13776                                       |
c |  Maximum Cardinality (by unit): 1020240      (1020240     )               |
c last restart ## conflicts  :  61 60218 
o 391 | cpuTime 4.97633 s
c Sum of weights = 127530
c A number of soft clauses remained = 1722
c MRWTO encoding for Pseudo-Boolean Constraints
c sizeMax=391
c No.0 Divisor=8	generated by pow1
c No.1 Divisor=8	generated by pow1
c No.2 Divisor=8	generated by pow1
c p0= 8	p1= 8	p2= 8	
c number of digits = 4
c linkingVar[0].size = 8, linkingVar[1].size = 8, linkingVar[2].size = 7, linkingVar[3].size = 1, 
c Pseudo-Boolean Constraints: 29581 variables and 198513 clauses
c Sum of weights = 127530
c A number of soft clauses remained = 1722
c MRWTO encoding for Pseudo-Boolean Constraints
c sizeMax=391
c No.0 Divisor=8	generated by pow1
c No.1 Divisor=8	generated by pow1
c No.2 Divisor=8	generated by pow1
c p0= 8	p1= 8	p2= 8	
c number of digits = 4
c linkingVar[0].size = 8, linkingVar[1].size = 8, linkingVar[2].size = 7, linkingVar[3].size = 1, 
c Pseudo-Boolean Constraints: 29581 variables and 198513 clauses
c Sum of weights = 127530
c A number of soft clauses remained = 1722
c MRWTO encoding for Pseudo-Boolean Constraints
c sizeMax=391
c No.0 Divisor=8	generated by pow1
c No.1 Divisor=8	generated by pow1
c No.2 Divisor=8	generated by pow1
c p0= 8	p1= 8	p2= 8	
c number of digits = 4
c linkingVar[0].size = 8, linkingVar[1].size = 8, linkingVar[2].size = 7, linkingVar[3].size = 1, 
c Pseudo-Boolean Constraints: 29581 variables and 198513 clauses
c Sum of weights = 127530
c A number of soft clauses remained = 1722
c MRWTO encoding for Pseudo-Boolean Constraints
c sizeMax=391
c No.0 Divisor=8	generated by pow1
c No.1 Divisor=8	generated by pow1
c No.2 Divisor=8	generated by pow1
c p0= 8	p1= 8	p2= 8	
c number of digits = 4
c linkingVar[0].size = 8, linkingVar[1].size = 8, linkingVar[2].size = 7, linkingVar[3].size = 1, 
c Pseudo-Boolean Constraints: 29581 variables and 198513 clauses
c Sum of weights = 127530
c A number of soft clauses remained = 1722
c MRWTO encoding for Pseudo-Boolean Constraints
c sizeMax=391
c No.0 Divisor=8	generated by pow1
c No.1 Divisor=8	generated by pow1
c No.2 Divisor=8	generated by pow1
c p0= 8	p1= 8	p2= 8	
c number of digits = 4
c linkingVar[0].size = 8, linkingVar[1].size = 8, linkingVar[2].size = 7, linkingVar[3].size = 1, 
c Pseudo-Boolean Constraints: 29581 variables and 198513 clauses
c Sum of weights = 127530
c A number of soft clauses remained = 1722
c MRWTO encoding for Pseudo-Boolean Constraints
c sizeMax=391
c No.0 Divisor=8	generated by pow1
c No.1 Divisor=8	generated by pow1
c No.2 Divisor=8	generated by pow1
c p0= 8	p1= 8	p2= 8	
c number of digits = 4
c linkingVar[0].size = 8, linkingVar[1].size = 8, linkingVar[2].size = 7, linkingVar[3].size = 1, 
c Pseudo-Boolean Constraints: 29581 variables and 198513 clauses
c Sum of weights = 127530
c A number of soft clauses remained = 1722
c MRWTO encoding for Pseudo-Boolean Constraints
c sizeMax=391
c No.0 Divisor=8	generated by pow1
c No.1 Divisor=8	generated by pow1
c No.2 Divisor=8	generated by pow1
c p0= 8	p1= 8	p2= 8	
c number of digits = 4
c linkingVar[0].size = 8, linkingVar[1].size = 8, linkingVar[2].size = 7, linkingVar[3].size = 1, 
c Pseudo-Boolean Constraints: 29581 variables and 198513 clauses
c Sum of weights = 127530
c A number of soft clauses remained = 1722
c MRWTO encoding for Pseudo-Boolean Constraints
c sizeMax=391
c No.0 Divisor=8	generated by pow1
c No.1 Divisor=8	generated by pow1
c No.2 Divisor=8	generated by pow1
c p0= 8	p1= 8	p2= 8	
c number of digits = 4
c linkingVar[0].size = 8, linkingVar[1].size = 8, linkingVar[2].size = 7, linkingVar[3].size = 1, 
c Pseudo-Boolean Constraints: 29581 variables and 198513 clauses
s UNKNOWN
c Search is stopped by a limit (maybe time-limit)
cr positiVarArr: [ | 2@1(1->2) | 45@1(2->3) | 88@1(3->4) | 131@1(4->5) | 174@1(5->6) | 211@1(6->1) | 1771@2(1->7) | 2024@2(7->8) | 2067@2(8->9) | 2110@2(9->10) | 2153@2(10->11) | 2185@2(11->1) | 3540@3(1->12) | 4003@3(12->13) | 4046@3(13->14) | 4089@3(14->15) | 4132@3(15->16) | 4200@3(16->42) | 5251@3(42->1) | 5309@4(1->17) | 5982@4(17->18) | 6025@4(18->19) | 6068@4(19->20) | 6111@4(20->21) | 6133@4(21->1) | 7078@5(1->22) | 7961@5(22->23) | 8004@5(23->24) | 8047@5(24->25) | 8090@5(25->26) | 8107@5(26->1) | 8847@6(1->27) | 9940@6(27->28) | 9983@6(28->29) | 10026@6(29->30) | 10069@6(30->31) | 10081@6(31->1) | 10616@7(1->32) | 11919@7(32->33) | 11962@7(33->34) | 12005@7(34->35) | 12048@7(35->36) | 12055@7(36->1) | 12385@8(1->37) | 13898@8(37->38) | 13941@8(38->39) | 13984@8(39->40) | 14027@8(40->41) | 14029@8(41->1) | ]
cr the 1-th chain: [ 1->2->3->4->5->6->1 ] (#non-depot=5) {#cumul.=6}
cr the 2-th chain: [ 1->7->8->9->10->11->1 ] (#non-depot=5) {#cumul.=11}
cr the 3-th chain: [ 1->12->13->14->15->16->42->1 ] (#non-depot=6) {#cumul.=17}
cr the 4-th chain: [ 1->17->18->19->20->21->1 ] (#non-depot=5) {#cumul.=22}
cr the 5-th chain: [ 1->22->23->24->25->26->1 ] (#non-depot=5) {#cumul.=27}
cr the 6-th chain: [ 1->27->28->29->30->31->1 ] (#non-depot=5) {#cumul.=32}
cr the 7-th chain: [ 1->32->33->34->35->36->1 ] (#non-depot=5) {#cumul.=37}
cr the 8-th chain: [ 1->37->38->39->40->41->1 ] (#non-depot=5) {#cumul.=42}
c Latest Answer = 0 by 1 loops
c restarts              : 49581
c conflicts             : 9705901        (2712 /sec)
c decisions             : 226570997      (0.00 % random) (63313 /sec)
c propagations          : 21118758087    (5901456 /sec)
c conflict literals     : 4363176894     (18.07 % deleted)
c Memory used           : 5493.00 MB
c CPU time              : 3578.57 s
